NAME          ClpDefau
ROWS
 N  OBJROW
 L  R_76_0
 L  R_76_1
 L  R_76_2
 L  R_76_3
 L  R_76_4
 L  R_76_5
 L  R_76_6
 L  R_76_7
COLUMNS
    x_0       OBJROW     -8.           R_76_2    3.          
    x_1       OBJROW     -12.       
    x_2       OBJROW     -11.          R_76_2    3.          
    x_2       R_76_4    6.             R_76_5    9.          
    x_3       OBJROW     -47.          R_76_1    8.          
    x_4       OBJROW     -22.          R_76_2    7.          
    x_5       OBJROW     -95.       
    x_6       OBJROW     -86.          R_76_5    10.         
    x_7       OBJROW     -40.       
RHS
    RHS       R_76_0    8.             R_76_1    9.          
    RHS       R_76_2    10.            R_76_3    9.          
    RHS       R_76_4    10.            R_76_5    10.         
    RHS       R_76_6    8.             R_76_7    9.          
BOUNDS
 UI BOUND     x_0       100.        
 UI BOUND     x_1       100.        
 UI BOUND     x_2       100.        
 UI BOUND     x_3       100.        
 UI BOUND     x_4       100.        
 UI BOUND     x_5       100.        
 UI BOUND     x_6       100.        
 UI BOUND     x_7       100.        
ENDATA
